c Standarized MaxSat Instance
c{
c "sha1sum": "3a5302690fb929f1baa824cb9282d8eb1bd9eda5",
c "nvars": 600,
c "ncls": 1600,
c "total_lits": 3200,
c "nhards": 1204,
c "nhard_nlits": 2804,
c "nhard_len_stats":
c    { "min": 1,
c      "max": 3,
c      "ave": 2.3289,
c      "stddev": 0.4768 },
c "nsofts": 396,
c "nsoft_nlits": 396,
c "nsoft_len_stats":
c    { "min": 1,
c      "max": 1,
c      "ave": 1.0000,
c      "stddev": 0.0000 },
c "nsoft_wts": 1,
c "soft_wt_stats":
c    { "min": 1,
c      "max": 1,
c      "ave": 1.0000,
c      "stddev": 0.0000 }
c}
c------------------------------------------------------------
h -1 315 0
h -1 381 0
h -1 414 0
h -1 575 0
h -2 241 0
h -2 376 0
h -2 504 0
h -2 517 0
h -3 407 0
h -3 434 0
h -3 555 0
h -3 567 0
h -3 573 0
h -4 282 0
h -4 486 0
h -4 510 0
h -5 271 0
h -5 322 0
h -5 457 0
h -5 470 0
h -5 539 0
h -6 379 0
h -6 437 0
h -6 478 0
h -6 502 0
h -6 568 0
h -7 211 0
h -7 214 0
h -7 229 0
h -7 329 0
h -7 513 0
h -8 277 0
h -8 363 0
h -8 419 0
h -8 492 0
h -8 524 0
h -8 540 0
h -9 384 0
h -9 421 0
h -9 435 0
h -9 498 0
h -9 514 0
h -10 217 0
h -10 268 0
h -10 299 0
h -10 489 0
h -11 301 0
h -11 312 0
h -11 360 0
h -11 511 0
h -12 367 0
h -12 569 0
h -12 575 0
h -13 354 0
h -13 372 0
h -13 439 0
h -13 488 0
h -14 243 0
h -14 262 0
h -14 392 0
h -15 408 0
h -15 471 0
h -15 571 0
h -15 593 0
h -16 294 0
h -16 501 0
h -16 518 0
h -17 202 0
h -17 269 0
h -17 270 0
h -17 440 0
h -17 472 0
h -17 522 0
h -18 485 0
h -18 505 0
h -18 551 0
h -18 564 0
h -19 258 0
h -19 347 0
h -19 362 0
h -19 421 0
h -19 422 0
h -20 313 0
h -20 344 0
h -20 491 0
h -21 291 0
h -21 312 0
h -21 395 0
h -21 418 0
h -21 487 0
h -21 501 0
h -21 557 0
h -21 598 0
h -22 320 0
h -22 368 0
h -22 400 0
h -22 521 0
h -23 233 0
h -23 234 0
h -23 370 0
h -23 411 0
h -24 239 0
h -24 277 0
h -24 311 0
h -24 399 0
h -24 537 0
h -25 259 0
h -25 477 0
h -25 504 0
h -26 265 0
h -26 287 0
h -26 395 0
h -26 424 0
h -27 253 0
h -27 434 0
h -27 441 0
h -27 563 0
h -28 250 0
h -28 336 0
h -28 397 0
h -28 566 0
h -29 201 0
h -29 240 0
h -29 251 0
h -29 461 0
h -30 230 0
h -30 305 0
h -30 469 0
h -30 516 0
h -31 225 0
h -31 310 0
h -31 382 0
h -31 410 0
h -32 219 0
h -32 263 0
h -32 344 0
h -32 430 0
h -33 237 0
h -33 304 0
h -33 352 0
h -33 413 0
h -34 456 0
h -34 512 0
h -34 588 0
h -35 285 0
h -35 290 0
h -35 381 0
h -35 535 0
h -35 537 0
h -35 594 0
h -36 260 0
h -36 342 0
h -36 529 0
h -36 546 0
h -37 300 0
h -37 350 0
h -37 509 0
h -37 592 0
h -38 239 0
h -38 242 0
h -38 321 0
h -39 366 0
h -39 380 0
h -39 468 0
h -40 326 0
h -40 520 0
h -40 542 0
h -40 579 0
h -41 224 0
h -41 248 0
h -41 557 0
h -42 211 0
h -42 386 0
h -42 484 0
h -42 490 0
h -42 531 0
h -43 423 0
h -43 595 0
h -43 596 0
h -44 220 0
h -44 235 0
h -44 318 0
h -44 444 0
h -44 490 0
h -44 578 0
h -45 220 0
h -45 445 0
h -45 533 0
h -45 551 0
h -46 375 0
h -46 559 0
h -46 586 0
h -47 354 0
h -47 416 0
h -47 524 0
h -47 550 0
h -48 226 0
h -48 231 0
h -48 253 0
h -48 258 0
h -49 206 0
h -49 215 0
h -49 437 0
h -49 528 0
h -50 227 0
h -50 299 0
h -50 385 0
h -50 514 0
h -50 515 0
h -50 546 0
h -51 454 0
h -51 556 0
h -51 600 0
h -52 278 0
h -52 361 0
h -52 394 0
h -52 453 0
h -53 219 0
h -53 333 0
h -53 473 0
h -53 529 0
h -54 246 0
h -54 281 0
h -54 383 0
h -55 422 0
h -55 561 0
h -55 572 0
h -55 599 0
h -56 302 0
h -56 353 0
h -56 482 0
h -57 205 0
h -57 291 0
h -57 334 0
h -57 562 0
h -58 326 0
h -58 442 0
h -58 512 0
h -58 534 0
h -59 374 0
h -59 391 0
h -59 499 0
h -59 586 0
h -60 348 0
h -60 402 0
h -60 507 0
h -60 522 0
h -60 549 0
h -61 289 0
h -61 364 0
h -61 519 0
h -62 288 0
h -62 292 0
h -62 297 0
h -62 582 0
h -62 584 0
h -63 249 0
h -63 309 0
h -63 393 0
h -63 394 0
h -64 223 0
h -64 454 0
h -64 476 0
h -64 495 0
h -64 526 0
h -65 300 0
h -65 303 0
h -65 402 0
h -65 510 0
h -65 523 0
h -66 272 0
h -66 404 0
h -66 467 0
h -67 209 0
h -67 264 0
h -67 396 0
h -67 425 0
h -68 256 0
h -68 266 0
h -68 386 0
h -68 554 0
h -68 572 0
h -69 210 0
h -69 293 0
h -69 581 0
h -70 308 0
h -70 480 0
h -70 553 0
h -71 304 0
h -71 417 0
h -71 438 0
h -71 554 0
h -71 565 0
h -72 202 0
h -72 398 0
h -72 407 0
h -72 444 0
h -73 273 0
h -73 413 0
h -73 538 0
h -73 593 0
h -74 236 0
h -74 278 0
h -74 415 0
h -74 589 0
h -75 327 0
h -75 351 0
h -75 530 0
h -75 545 0
h -75 577 0
h -76 387 0
h -76 552 0
h -76 597 0
h -77 323 0
h -77 378 0
h -77 399 0
h -77 453 0
h -77 562 0
h -77 587 0
h -78 379 0
h -78 460 0
h -78 574 0
h -79 208 0
h -79 411 0
h -79 564 0
h -79 570 0
h -80 319 0
h -80 346 0
h -80 497 0
h -81 339 0
h -81 426 0
h -81 433 0
h -82 323 0
h -82 357 0
h -82 358 0
h -82 479 0
h -82 531 0
h -83 276 0
h -83 450 0
h -83 532 0
h -84 464 0
h -84 561 0
h -84 576 0
h -84 598 0
h -85 222 0
h -85 232 0
h -85 316 0
h -85 458 0
h -85 485 0
h -85 547 0
h -86 245 0
h -86 296 0
h -86 338 0
h -86 545 0
h -87 361 0
h -87 436 0
h -87 447 0
h -87 583 0
h -88 228 0
h -88 356 0
h -88 363 0
h -88 466 0
h -89 446 0
h -89 475 0
h -89 503 0
h -90 270 0
h -90 325 0
h -90 558 0
h -91 261 0
h -91 264 0
h -91 346 0
h -91 548 0
h -91 574 0
h -92 244 0
h -92 301 0
h -92 334 0
h -92 452 0
h -93 324 0
h -93 539 0
h -93 540 0
h -94 252 0
h -94 267 0
h -94 424 0
h -95 389 0
h -95 401 0
h -95 493 0
h -96 337 0
h -96 343 0
h -96 587 0
h -96 589 0
h -97 314 0
h -97 427 0
h -97 590 0
h -98 204 0
h -98 212 0
h -98 335 0
h -99 384 0
h -99 459 0
h -99 523 0
h -99 556 0
h -100 267 0
h -100 306 0
h -100 355 0
h -100 550 0
h -101 317 0
h -101 412 0
h -101 443 0
h -101 505 0
h -101 527 0
h -102 217 0
h -102 290 0
h -102 377 0
h -103 330 0
h -103 369 0
h -103 544 0
h -104 215 0
h -104 232 0
h -104 429 0
h -104 443 0
h -105 388 0
h -105 555 0
h -105 577 0
h -106 212 0
h -106 216 0
h -106 231 0
h -106 282 0
h -106 494 0
h -106 500 0
h -107 403 0
h -107 406 0
h -107 481 0
h -108 262 0
h -108 274 0
h -108 451 0
h -108 536 0
h -109 240 0
h -109 255 0
h -109 359 0
h -109 496 0
h -109 515 0
h -110 223 0
h -110 320 0
h -110 338 0
h -111 203 0
h -111 271 0
h -111 415 0
h -111 484 0
h -111 518 0
h -112 297 0
h -112 462 0
h -112 568 0
h -113 340 0
h -113 390 0
h -113 400 0
h -113 448 0
h -114 207 0
h -114 257 0
h -114 397 0
h -115 254 0
h -115 289 0
h -115 307 0
h -115 373 0
h -116 230 0
h -116 463 0
h -116 525 0
h -117 280 0
h -117 284 0
h -117 371 0
h -118 214 0
h -118 321 0
h -118 330 0
h -118 356 0
h -118 482 0
h -118 487 0
h -119 432 0
h -119 560 0
h -119 565 0
h -120 218 0
h -120 345 0
h -120 543 0
h -121 275 0
h -121 286 0
h -121 580 0
h -122 405 0
h -122 431 0
h -122 476 0
h -122 570 0
h -123 221 0
h -123 328 0
h -123 452 0
h -123 591 0
h -124 428 0
h -124 455 0
h -124 458 0
h -124 483 0
h -125 247 0
h -125 269 0
h -125 420 0
h -126 331 0
h -126 409 0
h -126 506 0
h -127 213 0
h -127 382 0
h -127 503 0
h -127 585 0
h -128 238 0
h -128 349 0
h -128 359 0
h -128 447 0
h -129 283 0
h -129 461 0
h -129 584 0
h -130 279 0
h -130 292 0
h -130 449 0
h -130 474 0
h -131 252 0
h -131 316 0
h -131 341 0
h -131 541 0
h -132 295 0
h -132 365 0
h -132 416 0
h -132 465 0
h -133 298 0
h -133 401 0
h -133 417 0
h -133 508 0
h -134 317 0
h -134 332 0
h -134 350 0
h -135 205 0
h -135 280 0
h -135 328 0
h -135 534 0
h -135 567 0
h -136 281 0
h -136 305 0
h -136 322 0
h -136 525 0
h -136 571 0
h -137 310 0
h -137 393 0
h -137 469 0
h -138 279 0
h -138 371 0
h -138 498 0
h -139 235 0
h -139 372 0
h -139 441 0
h -139 594 0
h -140 274 0
h -140 286 0
h -140 448 0
h -141 303 0
h -141 309 0
h -141 419 0
h -141 573 0
h -142 208 0
h -142 391 0
h -142 439 0
h -142 581 0
h -143 368 0
h -143 423 0
h -143 548 0
h -144 420 0
h -144 442 0
h -144 446 0
h -144 520 0
h -145 241 0
h -145 257 0
h -145 360 0
h -145 392 0
h -145 465 0
h -146 237 0
h -146 383 0
h -146 457 0
h -146 483 0
h -146 488 0
h -147 376 0
h -147 380 0
h -147 429 0
h -147 464 0
h -147 467 0
h -148 295 0
h -148 493 0
h -148 542 0
h -148 566 0
h -149 221 0
h -149 228 0
h -149 436 0
h -149 530 0
h -150 213 0
h -150 227 0
h -150 248 0
h -150 251 0
h -151 284 0
h -151 324 0
h -151 538 0
h -152 250 0
h -152 266 0
h -152 418 0
h -152 433 0
h -152 478 0
h -153 288 0
h -153 365 0
h -153 541 0
h -153 558 0
h -154 206 0
h -154 247 0
h -154 259 0
h -154 521 0
h -155 319 0
h -155 495 0
h -155 506 0
h -156 362 0
h -156 378 0
h -156 455 0
h -156 543 0
h -157 293 0
h -157 302 0
h -157 535 0
h -157 597 0
h -158 238 0
h -158 357 0
h -158 460 0
h -158 492 0
h -158 502 0
h -159 245 0
h -159 315 0
h -159 345 0
h -159 389 0
h -159 477 0
h -160 369 0
h -160 579 0
h -160 583 0
h -161 463 0
h -161 500 0
h -161 576 0
h -162 294 0
h -162 481 0
h -162 591 0
h -163 373 0
h -163 438 0
h -163 544 0
h -163 585 0
h -164 272 0
h -164 337 0
h -164 405 0
h -164 445 0
h -165 412 0
h -165 462 0
h -165 595 0
h -166 468 0
h -166 527 0
h -166 528 0
h -167 216 0
h -167 306 0
h -167 431 0
h -167 456 0
h -167 479 0
h -168 218 0
h -168 318 0
h -168 406 0
h -168 428 0
h -169 367 0
h -169 390 0
h -169 409 0
h -169 414 0
h -169 430 0
h -170 347 0
h -170 355 0
h -170 496 0
h -171 224 0
h -171 327 0
h -171 339 0
h -171 533 0
h -172 348 0
h -172 353 0
h -172 474 0
h -172 580 0
h -173 480 0
h -173 552 0
h -173 553 0
h -173 563 0
h -174 243 0
h -174 296 0
h -174 329 0
h -174 459 0
h -175 226 0
h -175 311 0
h -175 374 0
h -175 403 0
h -175 590 0
h -176 560 0
h -176 588 0
h -176 596 0
h -177 236 0
h -177 366 0
h -177 509 0
h -178 287 0
h -178 427 0
h -178 435 0
h -178 470 0
h -178 532 0
h -178 578 0
h -179 207 0
h -179 341 0
h -179 507 0
h -179 569 0
h -180 234 0
h -180 313 0
h -180 494 0
h -181 233 0
h -181 332 0
h -181 333 0
h -181 466 0
h -182 249 0
h -182 285 0
h -182 387 0
h -182 388 0
h -182 425 0
h -182 440 0
h -182 511 0
h -183 342 0
h -183 351 0
h -183 404 0
h -184 244 0
h -184 298 0
h -184 307 0
h -184 325 0
h -184 370 0
h -185 204 0
h -185 426 0
h -185 497 0
h -185 517 0
h -186 255 0
h -186 261 0
h -186 273 0
h -186 343 0
h -187 408 0
h -187 499 0
h -187 547 0
h -188 222 0
h -188 340 0
h -188 486 0
h -188 513 0
h -189 210 0
h -189 260 0
h -189 471 0
h -189 549 0
h -190 203 0
h -190 475 0
h -190 491 0
h -191 352 0
h -191 375 0
h -191 432 0
h -191 449 0
h -191 526 0
h -191 559 0
h -191 582 0
h -192 276 0
h -192 308 0
h -192 336 0
h -193 268 0
h -193 396 0
h -193 450 0
h -193 451 0
h -193 489 0
h -194 473 0
h -194 519 0
h -194 536 0
h -195 314 0
h -195 410 0
h -195 600 0
h -196 246 0
h -196 275 0
h -196 398 0
h -196 516 0
h -197 209 0
h -197 331 0
h -197 349 0
h -198 229 0
h -198 256 0
h -198 263 0
h -198 335 0
h -198 364 0
h -198 508 0
h -199 201 0
h -199 225 0
h -199 254 0
h -199 358 0
h -199 377 0
h -199 385 0
h -199 472 0
h -200 242 0
h -200 265 0
h -200 283 0
h -200 592 0
h -200 599 0
h -201 29 199 0
h -202 17 72 0
h -203 111 190 0
h -204 98 185 0
h -205 57 135 0
h -206 49 154 0
h -207 114 179 0
h -208 79 142 0
h -209 67 197 0
h -210 69 189 0
h -211 7 42 0
h -212 98 106 0
h -213 127 150 0
h -214 7 118 0
h -215 49 104 0
h -216 106 167 0
h -217 10 102 0
h -218 120 168 0
h -219 32 53 0
h -220 44 45 0
h -221 123 149 0
h -222 85 188 0
h -223 64 110 0
h -224 41 171 0
h -225 31 199 0
h -226 48 175 0
h -227 50 150 0
h -228 88 149 0
h -229 7 198 0
h -230 30 116 0
h -231 48 106 0
h -232 85 104 0
h -233 23 181 0
h -234 23 180 0
h -235 44 139 0
h -236 74 177 0
h -237 33 146 0
h -238 128 158 0
h -239 24 38 0
h -240 29 109 0
h -241 2 145 0
h -242 38 200 0
h -243 14 174 0
h -244 92 184 0
h -245 86 159 0
h -246 54 196 0
h -247 125 154 0
h -248 41 150 0
h -249 63 182 0
h -250 28 152 0
h -251 29 150 0
h -252 94 131 0
h -253 27 48 0
h -254 115 199 0
h -255 109 186 0
h -256 68 198 0
h -257 114 145 0
h -258 19 48 0
h -259 25 154 0
h -260 36 189 0
h -261 91 186 0
h -262 14 108 0
h -263 32 198 0
h -264 67 91 0
h -265 26 200 0
h -266 68 152 0
h -267 94 100 0
h -268 10 193 0
h -269 17 125 0
h -270 17 90 0
h -271 5 111 0
h -272 66 164 0
h -273 73 186 0
h -274 108 140 0
h -275 121 196 0
h -276 83 192 0
h -277 8 24 0
h -278 52 74 0
h -279 130 138 0
h -280 117 135 0
h -281 54 136 0
h -282 4 106 0
h -283 129 200 0
h -284 117 151 0
h -285 35 182 0
h -286 121 140 0
h -287 26 178 0
h -288 62 153 0
h -289 61 115 0
h -290 35 102 0
h -291 21 57 0
h -292 62 130 0
h -293 69 157 0
h -294 16 162 0
h -295 132 148 0
h -296 86 174 0
h -297 62 112 0
h -298 133 184 0
h -299 10 50 0
h -300 37 65 0
h -301 11 92 0
h -302 56 157 0
h -303 65 141 0
h -304 33 71 0
h -305 30 136 0
h -306 100 167 0
h -307 115 184 0
h -308 70 192 0
h -309 63 141 0
h -310 31 137 0
h -311 24 175 0
h -312 11 21 0
h -313 20 180 0
h -314 97 195 0
h -315 1 159 0
h -316 85 131 0
h -317 101 134 0
h -318 44 168 0
h -319 80 155 0
h -320 22 110 0
h -321 38 118 0
h -322 5 136 0
h -323 77 82 0
h -324 93 151 0
h -325 90 184 0
h -326 40 58 0
h -327 75 171 0
h -328 123 135 0
h -329 7 174 0
h -330 103 118 0
h -331 126 197 0
h -332 134 181 0
h -333 53 181 0
h -334 57 92 0
h -335 98 198 0
h -336 28 192 0
h -337 96 164 0
h -338 86 110 0
h -339 81 171 0
h -340 113 188 0
h -341 131 179 0
h -342 36 183 0
h -343 96 186 0
h -344 20 32 0
h -345 120 159 0
h -346 80 91 0
h -347 19 170 0
h -348 60 172 0
h -349 128 197 0
h -350 37 134 0
h -351 75 183 0
h -352 33 191 0
h -353 56 172 0
h -354 13 47 0
h -355 100 170 0
h -356 88 118 0
h -357 82 158 0
h -358 82 199 0
h -359 109 128 0
h -360 11 145 0
h -361 52 87 0
h -362 19 156 0
h -363 8 88 0
h -364 61 198 0
h -365 132 153 0
h -366 39 177 0
h -367 12 169 0
h -368 22 143 0
h -369 103 160 0
h -370 23 184 0
h -371 117 138 0
h -372 13 139 0
h -373 115 163 0
h -374 59 175 0
h -375 46 191 0
h -376 2 147 0
h -377 102 199 0
h -378 77 156 0
h -379 6 78 0
h -380 39 147 0
h -381 1 35 0
h -382 31 127 0
h -383 54 146 0
h -384 9 99 0
h -385 50 199 0
h -386 42 68 0
h -387 76 182 0
h -388 105 182 0
h -389 95 159 0
h -390 113 169 0
h -391 59 142 0
h -392 14 145 0
h -393 63 137 0
h -394 52 63 0
h -395 21 26 0
h -396 67 193 0
h -397 28 114 0
h -398 72 196 0
h -399 24 77 0
h -400 22 113 0
h -401 95 133 0
h -402 60 65 0
h -403 107 175 0
h -404 66 183 0
h -405 122 164 0
h -406 107 168 0
h -407 3 72 0
h -408 15 187 0
h -409 126 169 0
h -410 31 195 0
h -411 23 79 0
h -412 101 165 0
h -413 33 73 0
h -414 1 169 0
h -415 74 111 0
h -416 47 132 0
h -417 71 133 0
h -418 21 152 0
h -419 8 141 0
h -420 125 144 0
h -421 9 19 0
h -422 19 55 0
h -423 43 143 0
h -424 26 94 0
h -425 67 182 0
h -426 81 185 0
h -427 97 178 0
h -428 124 168 0
h -429 104 147 0
h -430 32 169 0
h -431 122 167 0
h -432 119 191 0
h -433 81 152 0
h -434 3 27 0
h -435 9 178 0
h -436 87 149 0
h -437 6 49 0
h -438 71 163 0
h -439 13 142 0
h -440 17 182 0
h -441 27 139 0
h -442 58 144 0
h -443 101 104 0
h -444 44 72 0
h -445 45 164 0
h -446 89 144 0
h -447 87 128 0
h -448 113 140 0
h -449 130 191 0
h -450 83 193 0
h -451 108 193 0
h -452 92 123 0
h -453 52 77 0
h -454 51 64 0
h -455 124 156 0
h -456 34 167 0
h -457 5 146 0
h -458 85 124 0
h -459 99 174 0
h -460 78 158 0
h -461 29 129 0
h -462 112 165 0
h -463 116 161 0
h -464 84 147 0
h -465 132 145 0
h -466 88 181 0
h -467 66 147 0
h -468 39 166 0
h -469 30 137 0
h -470 5 178 0
h -471 15 189 0
h -472 17 199 0
h -473 53 194 0
h -474 130 172 0
h -475 89 190 0
h -476 64 122 0
h -477 25 159 0
h -478 6 152 0
h -479 82 167 0
h -480 70 173 0
h -481 107 162 0
h -482 56 118 0
h -483 124 146 0
h -484 42 111 0
h -485 18 85 0
h -486 4 188 0
h -487 21 118 0
h -488 13 146 0
h -489 10 193 0
h -490 42 44 0
h -491 20 190 0
h -492 8 158 0
h -493 95 148 0
h -494 106 180 0
h -495 64 155 0
h -496 109 170 0
h -497 80 185 0
h -498 9 138 0
h -499 59 187 0
h -500 106 161 0
h -501 16 21 0
h -502 6 158 0
h -503 89 127 0
h -504 2 25 0
h -505 18 101 0
h -506 126 155 0
h -507 60 179 0
h -508 133 198 0
h -509 37 177 0
h -510 4 65 0
h -511 11 182 0
h -512 34 58 0
h -513 7 188 0
h -514 9 50 0
h -515 50 109 0
h -516 30 196 0
h -517 2 185 0
h -518 16 111 0
h -519 61 194 0
h -520 40 144 0
h -521 22 154 0
h -522 17 60 0
h -523 65 99 0
h -524 8 47 0
h -525 116 136 0
h -526 64 191 0
h -527 101 166 0
h -528 49 166 0
h -529 36 53 0
h -530 75 149 0
h -531 42 82 0
h -532 83 178 0
h -533 45 171 0
h -534 58 135 0
h -535 35 157 0
h -536 108 194 0
h -537 24 35 0
h -538 73 151 0
h -539 5 93 0
h -540 8 93 0
h -541 131 153 0
h -542 40 148 0
h -543 120 156 0
h -544 103 163 0
h -545 75 86 0
h -546 36 50 0
h -547 85 187 0
h -548 91 143 0
h -549 60 189 0
h -550 47 100 0
h -551 18 45 0
h -552 76 173 0
h -553 70 173 0
h -554 68 71 0
h -555 3 105 0
h -556 51 99 0
h -557 21 41 0
h -558 90 153 0
h -559 46 191 0
h -560 119 176 0
h -561 55 84 0
h -562 57 77 0
h -563 27 173 0
h -564 18 79 0
h -565 71 119 0
h -566 28 148 0
h -567 3 135 0
h -568 6 112 0
h -569 12 179 0
h -570 79 122 0
h -571 15 136 0
h -572 55 68 0
h -573 3 141 0
h -574 78 91 0
h -575 1 12 0
h -576 84 161 0
h -577 75 105 0
h -578 44 178 0
h -579 40 160 0
h -580 121 172 0
h -581 69 142 0
h -582 62 191 0
h -583 87 160 0
h -584 62 129 0
h -585 127 163 0
h -586 46 59 0
h -587 77 96 0
h -588 34 176 0
h -589 74 96 0
h -590 97 175 0
h -591 123 162 0
h -592 37 200 0
h -593 15 73 0
h -594 35 139 0
h -595 43 165 0
h -596 43 176 0
h -597 76 157 0
h -598 21 84 0
h -599 55 200 0
h -600 51 195 0
h 201 0
h 202 0
h 203 0
h 204 0
1 -205 0
1 -206 0
1 -207 0
1 -208 0
1 -209 0
1 -210 0
1 -211 0
1 -212 0
1 -213 0
1 -214 0
1 -215 0
1 -216 0
1 -217 0
1 -218 0
1 -219 0
1 -220 0
1 -221 0
1 -222 0
1 -223 0
1 -224 0
1 -225 0
1 -226 0
1 -227 0
1 -228 0
1 -229 0
1 -230 0
1 -231 0
1 -232 0
1 -233 0
1 -234 0
1 -235 0
1 -236 0
1 -237 0
1 -238 0
1 -239 0
1 -240 0
1 -241 0
1 -242 0
1 -243 0
1 -244 0
1 -245 0
1 -246 0
1 -247 0
1 -248 0
1 -249 0
1 -250 0
1 -251 0
1 -252 0
1 -253 0
1 -254 0
1 -255 0
1 -256 0
1 -257 0
1 -258 0
1 -259 0
1 -260 0
1 -261 0
1 -262 0
1 -263 0
1 -264 0
1 -265 0
1 -266 0
1 -267 0
1 -268 0
1 -269 0
1 -270 0
1 -271 0
1 -272 0
1 -273 0
1 -274 0
1 -275 0
1 -276 0
1 -277 0
1 -278 0
1 -279 0
1 -280 0
1 -281 0
1 -282 0
1 -283 0
1 -284 0
1 -285 0
1 -286 0
1 -287 0
1 -288 0
1 -289 0
1 -290 0
1 -291 0
1 -292 0
1 -293 0
1 -294 0
1 -295 0
1 -296 0
1 -297 0
1 -298 0
1 -299 0
1 -300 0
1 -301 0
1 -302 0
1 -303 0
1 -304 0
1 -305 0
1 -306 0
1 -307 0
1 -308 0
1 -309 0
1 -310 0
1 -311 0
1 -312 0
1 -313 0
1 -314 0
1 -315 0
1 -316 0
1 -317 0
1 -318 0
1 -319 0
1 -320 0
1 -321 0
1 -322 0
1 -323 0
1 -324 0
1 -325 0
1 -326 0
1 -327 0
1 -328 0
1 -329 0
1 -330 0
1 -331 0
1 -332 0
1 -333 0
1 -334 0
1 -335 0
1 -336 0
1 -337 0
1 -338 0
1 -339 0
1 -340 0
1 -341 0
1 -342 0
1 -343 0
1 -344 0
1 -345 0
1 -346 0
1 -347 0
1 -348 0
1 -349 0
1 -350 0
1 -351 0
1 -352 0
1 -353 0
1 -354 0
1 -355 0
1 -356 0
1 -357 0
1 -358 0
1 -359 0
1 -360 0
1 -361 0
1 -362 0
1 -363 0
1 -364 0
1 -365 0
1 -366 0
1 -367 0
1 -368 0
1 -369 0
1 -370 0
1 -371 0
1 -372 0
1 -373 0
1 -374 0
1 -375 0
1 -376 0
1 -377 0
1 -378 0
1 -379 0
1 -380 0
1 -381 0
1 -382 0
1 -383 0
1 -384 0
1 -385 0
1 -386 0
1 -387 0
1 -388 0
1 -389 0
1 -390 0
1 -391 0
1 -392 0
1 -393 0
1 -394 0
1 -395 0
1 -396 0
1 -397 0
1 -398 0
1 -399 0
1 -400 0
1 -401 0
1 -402 0
1 -403 0
1 -404 0
1 -405 0
1 -406 0
1 -407 0
1 -408 0
1 -409 0
1 -410 0
1 -411 0
1 -412 0
1 -413 0
1 -414 0
1 -415 0
1 -416 0
1 -417 0
1 -418 0
1 -419 0
1 -420 0
1 -421 0
1 -422 0
1 -423 0
1 -424 0
1 -425 0
1 -426 0
1 -427 0
1 -428 0
1 -429 0
1 -430 0
1 -431 0
1 -432 0
1 -433 0
1 -434 0
1 -435 0
1 -436 0
1 -437 0
1 -438 0
1 -439 0
1 -440 0
1 -441 0
1 -442 0
1 -443 0
1 -444 0
1 -445 0
1 -446 0
1 -447 0
1 -448 0
1 -449 0
1 -450 0
1 -451 0
1 -452 0
1 -453 0
1 -454 0
1 -455 0
1 -456 0
1 -457 0
1 -458 0
1 -459 0
1 -460 0
1 -461 0
1 -462 0
1 -463 0
1 -464 0
1 -465 0
1 -466 0
1 -467 0
1 -468 0
1 -469 0
1 -470 0
1 -471 0
1 -472 0
1 -473 0
1 -474 0
1 -475 0
1 -476 0
1 -477 0
1 -478 0
1 -479 0
1 -480 0
1 -481 0
1 -482 0
1 -483 0
1 -484 0
1 -485 0
1 -486 0
1 -487 0
1 -488 0
1 -489 0
1 -490 0
1 -491 0
1 -492 0
1 -493 0
1 -494 0
1 -495 0
1 -496 0
1 -497 0
1 -498 0
1 -499 0
1 -500 0
1 -501 0
1 -502 0
1 -503 0
1 -504 0
1 -505 0
1 -506 0
1 -507 0
1 -508 0
1 -509 0
1 -510 0
1 -511 0
1 -512 0
1 -513 0
1 -514 0
1 -515 0
1 -516 0
1 -517 0
1 -518 0
1 -519 0
1 -520 0
1 -521 0
1 -522 0
1 -523 0
1 -524 0
1 -525 0
1 -526 0
1 -527 0
1 -528 0
1 -529 0
1 -530 0
1 -531 0
1 -532 0
1 -533 0
1 -534 0
1 -535 0
1 -536 0
1 -537 0
1 -538 0
1 -539 0
1 -540 0
1 -541 0
1 -542 0
1 -543 0
1 -544 0
1 -545 0
1 -546 0
1 -547 0
1 -548 0
1 -549 0
1 -550 0
1 -551 0
1 -552 0
1 -553 0
1 -554 0
1 -555 0
1 -556 0
1 -557 0
1 -558 0
1 -559 0
1 -560 0
1 -561 0
1 -562 0
1 -563 0
1 -564 0
1 -565 0
1 -566 0
1 -567 0
1 -568 0
1 -569 0
1 -570 0
1 -571 0
1 -572 0
1 -573 0
1 -574 0
1 -575 0
1 -576 0
1 -577 0
1 -578 0
1 -579 0
1 -580 0
1 -581 0
1 -582 0
1 -583 0
1 -584 0
1 -585 0
1 -586 0
1 -587 0
1 -588 0
1 -589 0
1 -590 0
1 -591 0
1 -592 0
1 -593 0
1 -594 0
1 -595 0
1 -596 0
1 -597 0
1 -598 0
1 -599 0
1 -600 0
